p cnf 35	1540
1	3	5	0
-1	-3	-5	0
1	3	10	0
-1	-3	-10	0
1	3	11	0
-1	-3	-11	0
1	3	13	0
-1	-3	-13	0
1	3	21	0
-1	-3	-21	0
1	3	26	0
-1	-3	-26	0
1	3	30	0
-1	-3	-30	0
1	3	34	0
-1	-3	-34	0
1	5	10	0
-1	-5	-10	0
1	5	11	0
-1	-5	-11	0
1	5	13	0
-1	-5	-13	0
1	5	19	0
-1	-5	-19	0
1	5	22	0
-1	-5	-22	0
1	5	30	0
-1	-5	-30	0
1	7	8	0
-1	-7	-8	0
1	7	11	0
-1	-7	-11	0
1	7	13	0
-1	-7	-13	0
1	7	21	0
-1	-7	-21	0
1	7	22	0
-1	-7	-22	0
1	7	23	0
-1	-7	-23	0
1	7	30	0
-1	-7	-30	0
1	8	10	0
-1	-8	-10	0
1	8	12	0
-1	-8	-12	0
1	8	13	0
-1	-8	-13	0
1	8	16	0
-1	-8	-16	0
1	8	18	0
-1	-8	-18	0
1	8	21	0
-1	-8	-21	0
1	8	23	0
-1	-8	-23	0
1	8	29	0
-1	-8	-29	0
1	8	31	0
-1	-8	-31	0
1	10	12	0
-1	-10	-12	0
1	10	13	0
-1	-10	-13	0
1	10	16	0
-1	-10	-16	0
1	10	17	0
-1	-10	-17	0
1	10	19	0
-1	-10	-19	0
1	10	22	0
-1	-10	-22	0
1	10	26	0
-1	-10	-26	0
1	10	29	0
-1	-10	-29	0
1	10	34	0
-1	-10	-34	0
1	11	13	0
-1	-11	-13	0
1	11	16	0
-1	-11	-16	0
1	11	18	0
-1	-11	-18	0
1	11	19	0
-1	-11	-19	0
1	11	23	0
-1	-11	-23	0
1	11	34	0
-1	-11	-34	0
1	12	13	0
-1	-12	-13	0
1	12	16	0
-1	-12	-16	0
1	12	17	0
-1	-12	-17	0
1	12	18	0
-1	-12	-18	0
1	12	19	0
-1	-12	-19	0
1	12	21	0
-1	-12	-21	0
1	12	29	0
-1	-12	-29	0
1	12	31	0
-1	-12	-31	0
1	13	18	0
-1	-13	-18	0
1	13	21	0
-1	-13	-21	0
1	13	26	0
-1	-13	-26	0
1	13	34	0
-1	-13	-34	0
1	16	19	0
-1	-16	-19	0
1	16	21	0
-1	-16	-21	0
1	16	22	0
-1	-16	-22	0
1	16	30	0
-1	-16	-30	0
1	16	31	0
-1	-16	-31	0
1	17	19	0
-1	-17	-19	0
1	17	21	0
-1	-17	-21	0
1	17	22	0
-1	-17	-22	0
1	17	23	0
-1	-17	-23	0
1	17	26	0
-1	-17	-26	0
1	17	29	0
-1	-17	-29	0
1	17	30	0
-1	-17	-30	0
1	18	21	0
-1	-18	-21	0
1	18	22	0
-1	-18	-22	0
1	18	29	0
-1	-18	-29	0
1	18	30	0
-1	-18	-30	0
1	18	31	0
-1	-18	-31	0
1	18	34	0
-1	-18	-34	0
1	19	21	0
-1	-19	-21	0
1	19	22	0
-1	-19	-22	0
1	19	23	0
-1	-19	-23	0
1	19	34	0
-1	-19	-34	0
1	21	23	0
-1	-21	-23	0
1	21	29	0
-1	-21	-29	0
1	21	30	0
-1	-21	-30	0
1	21	31	0
-1	-21	-31	0
1	21	34	0
-1	-21	-34	0
1	22	26	0
-1	-22	-26	0
1	22	30	0
-1	-22	-30	0
1	22	31	0
-1	-22	-31	0
1	23	26	0
-1	-23	-26	0
1	23	29	0
-1	-23	-29	0
1	23	34	0
-1	-23	-34	0
1	26	29	0
-1	-26	-29	0
1	26	30	0
-1	-26	-30	0
1	26	31	0
-1	-26	-31	0
1	26	34	0
-1	-26	-34	0
1	29	34	0
-1	-29	-34	0
1	30	34	0
-1	-30	-34	0
1	31	34	0
-1	-31	-34	0
2	3	5	0
-2	-3	-5	0
2	3	9	0
-2	-3	-9	0
2	3	14	0
-2	-3	-14	0
2	3	15	0
-2	-3	-15	0
2	3	24	0
-2	-3	-24	0
2	3	25	0
-2	-3	-25	0
2	3	30	0
-2	-3	-30	0
2	3	32	0
-2	-3	-32	0
2	3	34	0
-2	-3	-34	0
2	5	22	0
-2	-5	-22	0
2	5	25	0
-2	-5	-25	0
2	5	28	0
-2	-5	-28	0
2	5	30	0
-2	-5	-30	0
2	8	12	0
-2	-8	-12	0
2	8	23	0
-2	-8	-23	0
2	8	24	0
-2	-8	-24	0
2	8	29	0
-2	-8	-29	0
2	8	31	0
-2	-8	-31	0
2	8	32	0
-2	-8	-32	0
2	9	12	0
-2	-9	-12	0
2	9	22	0
-2	-9	-22	0
2	9	23	0
-2	-9	-23	0
2	9	24	0
-2	-9	-24	0
2	9	25	0
-2	-9	-25	0
2	9	28	0
-2	-9	-28	0
2	9	30	0
-2	-9	-30	0
2	9	34	0
-2	-9	-34	0
2	12	14	0
-2	-12	-14	0
2	12	15	0
-2	-12	-15	0
2	12	17	0
-2	-12	-17	0
2	12	24	0
-2	-12	-24	0
2	12	25	0
-2	-12	-25	0
2	12	29	0
-2	-12	-29	0
2	12	31	0
-2	-12	-31	0
2	14	15	0
-2	-14	-15	0
2	14	17	0
-2	-14	-17	0
2	14	22	0
-2	-14	-22	0
2	14	28	0
-2	-14	-28	0
2	14	29	0
-2	-14	-29	0
2	14	30	0
-2	-14	-30	0
2	14	32	0
-2	-14	-32	0
2	15	17	0
-2	-15	-17	0
2	15	24	0
-2	-15	-24	0
2	15	25	0
-2	-15	-25	0
2	15	27	0
-2	-15	-27	0
2	15	28	0
-2	-15	-28	0
2	15	29	0
-2	-15	-29	0
2	15	30	0
-2	-15	-30	0
2	15	32	0
-2	-15	-32	0
2	17	22	0
-2	-17	-22	0
2	17	23	0
-2	-17	-23	0
2	17	25	0
-2	-17	-25	0
2	17	29	0
-2	-17	-29	0
2	17	30	0
-2	-17	-30	0
2	17	32	0
-2	-17	-32	0
2	22	24	0
-2	-22	-24	0
2	22	30	0
-2	-22	-30	0
2	22	31	0
-2	-22	-31	0
2	22	32	0
-2	-22	-32	0
2	23	25	0
-2	-23	-25	0
2	23	29	0
-2	-23	-29	0
2	23	34	0
-2	-23	-34	0
2	24	25	0
-2	-24	-25	0
2	24	28	0
-2	-24	-28	0
2	24	30	0
-2	-24	-30	0
2	24	32	0
-2	-24	-32	0
2	24	34	0
-2	-24	-34	0
2	25	27	0
-2	-25	-27	0
2	25	28	0
-2	-25	-28	0
2	25	30	0
-2	-25	-30	0
2	25	32	0
-2	-25	-32	0
2	27	29	0
-2	-27	-29	0
2	27	34	0
-2	-27	-34	0
2	28	30	0
-2	-28	-30	0
2	29	34	0
-2	-29	-34	0
2	30	34	0
-2	-30	-34	0
2	31	32	0
-2	-31	-32	0
2	31	34	0
-2	-31	-34	0
3	5	6	0
-3	-5	-6	0
3	5	10	0
-3	-5	-10	0
3	5	11	0
-3	-5	-11	0
3	5	13	0
-3	-5	-13	0
3	5	25	0
-3	-5	-25	0
3	5	30	0
-3	-5	-30	0
3	6	9	0
-3	-6	-9	0
3	6	14	0
-3	-6	-14	0
3	6	15	0
-3	-6	-15	0
3	6	21	0
-3	-6	-21	0
3	6	24	0
-3	-6	-24	0
3	6	25	0
-3	-6	-25	0
3	6	34	0
-3	-6	-34	0
3	9	21	0
-3	-9	-21	0
3	9	24	0
-3	-9	-24	0
3	9	25	0
-3	-9	-25	0
3	9	30	0
-3	-9	-30	0
3	9	34	0
-3	-9	-34	0
3	10	13	0
-3	-10	-13	0
3	10	15	0
-3	-10	-15	0
3	10	26	0
-3	-10	-26	0
3	10	34	0
-3	-10	-34	0
3	11	13	0
-3	-11	-13	0
3	11	15	0
-3	-11	-15	0
3	11	32	0
-3	-11	-32	0
3	11	34	0
-3	-11	-34	0
3	13	14	0
-3	-13	-14	0
3	13	21	0
-3	-13	-21	0
3	13	24	0
-3	-13	-24	0
3	13	26	0
-3	-13	-26	0
3	13	34	0
-3	-13	-34	0
3	14	15	0
-3	-14	-15	0
3	14	30	0
-3	-14	-30	0
3	14	32	0
-3	-14	-32	0
3	15	21	0
-3	-15	-21	0
3	15	24	0
-3	-15	-24	0
3	15	25	0
-3	-15	-25	0
3	15	26	0
-3	-15	-26	0
3	15	30	0
-3	-15	-30	0
3	15	32	0
-3	-15	-32	0
3	21	24	0
-3	-21	-24	0
3	21	25	0
-3	-21	-25	0
3	21	30	0
-3	-21	-30	0
3	21	32	0
-3	-21	-32	0
3	21	34	0
-3	-21	-34	0
3	24	25	0
-3	-24	-25	0
3	24	26	0
-3	-24	-26	0
3	24	30	0
-3	-24	-30	0
3	24	32	0
-3	-24	-32	0
3	24	34	0
-3	-24	-34	0
3	25	26	0
-3	-25	-26	0
3	25	30	0
-3	-25	-30	0
3	25	32	0
-3	-25	-32	0
3	26	30	0
-3	-26	-30	0
3	26	32	0
-3	-26	-32	0
3	26	34	0
-3	-26	-34	0
3	30	34	0
-3	-30	-34	0
4	5	10	0
-4	-5	-10	0
4	5	11	0
-4	-5	-11	0
4	5	22	0
-4	-5	-22	0
4	5	28	0
-4	-5	-28	0
4	7	8	0
-4	-7	-8	0
4	7	11	0
-4	-7	-11	0
4	7	20	0
-4	-7	-20	0
4	7	21	0
-4	-7	-21	0
4	7	22	0
-4	-7	-22	0
4	7	23	0
-4	-7	-23	0
4	7	28	0
-4	-7	-28	0
4	7	32	0
-4	-7	-32	0
4	8	10	0
-4	-8	-10	0
4	8	18	0
-4	-8	-18	0
4	8	20	0
-4	-8	-20	0
4	8	21	0
-4	-8	-21	0
4	8	23	0
-4	-8	-23	0
4	8	24	0
-4	-8	-24	0
4	8	29	0
-4	-8	-29	0
4	8	32	0
-4	-8	-32	0
4	10	15	0
-4	-10	-15	0
4	10	20	0
-4	-10	-20	0
4	10	22	0
-4	-10	-22	0
4	10	26	0
-4	-10	-26	0
4	10	29	0
-4	-10	-29	0
4	10	34	0
-4	-10	-34	0
4	11	15	0
-4	-11	-15	0
4	11	18	0
-4	-11	-18	0
4	11	20	0
-4	-11	-20	0
4	11	23	0
-4	-11	-23	0
4	11	32	0
-4	-11	-32	0
4	11	34	0
-4	-11	-34	0
4	15	21	0
-4	-15	-21	0
4	15	24	0
-4	-15	-24	0
4	15	26	0
-4	-15	-26	0
4	15	28	0
-4	-15	-28	0
4	15	29	0
-4	-15	-29	0
4	15	32	0
-4	-15	-32	0
4	18	21	0
-4	-18	-21	0
4	18	22	0
-4	-18	-22	0
4	18	29	0
-4	-18	-29	0
4	18	32	0
-4	-18	-32	0
4	18	34	0
-4	-18	-34	0
4	20	21	0
-4	-20	-21	0
4	20	24	0
-4	-20	-24	0
4	20	34	0
-4	-20	-34	0
4	21	23	0
-4	-21	-23	0
4	21	24	0
-4	-21	-24	0
4	21	29	0
-4	-21	-29	0
4	21	32	0
-4	-21	-32	0
4	21	34	0
-4	-21	-34	0
4	22	24	0
-4	-22	-24	0
4	22	26	0
-4	-22	-26	0
4	22	32	0
-4	-22	-32	0
4	23	26	0
-4	-23	-26	0
4	23	29	0
-4	-23	-29	0
4	23	34	0
-4	-23	-34	0
4	24	26	0
-4	-24	-26	0
4	24	28	0
-4	-24	-28	0
4	24	32	0
-4	-24	-32	0
4	24	34	0
-4	-24	-34	0
4	26	29	0
-4	-26	-29	0
4	26	32	0
-4	-26	-32	0
4	26	34	0
-4	-26	-34	0
4	29	34	0
-4	-29	-34	0
5	6	22	0
-5	-6	-22	0
5	6	25	0
-5	-6	-25	0
5	6	28	0
-5	-6	-28	0
5	10	13	0
-5	-10	-13	0
5	10	19	0
-5	-10	-19	0
5	10	22	0
-5	-10	-22	0
5	11	13	0
-5	-11	-13	0
5	11	19	0
-5	-11	-19	0
5	11	33	0
-5	-11	-33	0
5	13	33	0
-5	-13	-33	0
5	19	22	0
-5	-19	-22	0
5	19	28	0
-5	-19	-28	0
5	19	33	0
-5	-19	-33	0
5	22	30	0
-5	-22	-30	0
5	22	33	0
-5	-22	-33	0
5	25	28	0
-5	-25	-28	0
5	25	30	0
-5	-25	-30	0
5	28	30	0
-5	-28	-30	0
5	30	33	0
-5	-30	-33	0
6	7	9	0
-6	-7	-9	0
6	7	14	0
-6	-7	-14	0
6	7	20	0
-6	-7	-20	0
6	7	21	0
-6	-7	-21	0
6	7	22	0
-6	-7	-22	0
6	7	28	0
-6	-7	-28	0
6	9	20	0
-6	-9	-20	0
6	9	21	0
-6	-9	-21	0
6	9	22	0
-6	-9	-22	0
6	9	24	0
-6	-9	-24	0
6	9	25	0
-6	-9	-25	0
6	9	28	0
-6	-9	-28	0
6	9	34	0
-6	-9	-34	0
6	14	15	0
-6	-14	-15	0
6	14	16	0
-6	-14	-16	0
6	14	20	0
-6	-14	-20	0
6	14	22	0
-6	-14	-22	0
6	14	28	0
-6	-14	-28	0
6	14	29	0
-6	-14	-29	0
6	15	21	0
-6	-15	-21	0
6	15	24	0
-6	-15	-24	0
6	15	25	0
-6	-15	-25	0
6	15	28	0
-6	-15	-28	0
6	15	29	0
-6	-15	-29	0
6	16	20	0
-6	-16	-20	0
6	16	21	0
-6	-16	-21	0
6	16	22	0
-6	-16	-22	0
6	16	24	0
-6	-16	-24	0
6	16	25	0
-6	-16	-25	0
6	16	28	0
-6	-16	-28	0
6	20	21	0
-6	-20	-21	0
6	20	24	0
-6	-20	-24	0
6	20	25	0
-6	-20	-25	0
6	20	34	0
-6	-20	-34	0
6	21	24	0
-6	-21	-24	0
6	21	25	0
-6	-21	-25	0
6	21	29	0
-6	-21	-29	0
6	21	34	0
-6	-21	-34	0
6	22	24	0
-6	-22	-24	0
6	24	25	0
-6	-24	-25	0
6	24	28	0
-6	-24	-28	0
6	24	34	0
-6	-24	-34	0
6	25	28	0
-6	-25	-28	0
6	29	34	0
-6	-29	-34	0
7	8	13	0
-7	-8	-13	0
7	8	20	0
-7	-8	-20	0
7	8	21	0
-7	-8	-21	0
7	8	23	0
-7	-8	-23	0
7	8	32	0
-7	-8	-32	0
7	9	20	0
-7	-9	-20	0
7	9	21	0
-7	-9	-21	0
7	9	22	0
-7	-9	-22	0
7	9	23	0
-7	-9	-23	0
7	9	28	0
-7	-9	-28	0
7	9	30	0
-7	-9	-30	0
7	11	13	0
-7	-11	-13	0
7	11	20	0
-7	-11	-20	0
7	11	23	0
-7	-11	-23	0
7	11	32	0
-7	-11	-32	0
7	13	14	0
-7	-13	-14	0
7	13	20	0
-7	-13	-20	0
7	13	21	0
-7	-13	-21	0
7	14	20	0
-7	-14	-20	0
7	14	22	0
-7	-14	-22	0
7	14	28	0
-7	-14	-28	0
7	14	30	0
-7	-14	-30	0
7	14	32	0
-7	-14	-32	0
7	20	21	0
-7	-20	-21	0
7	20	27	0
-7	-20	-27	0
7	20	30	0
-7	-20	-30	0
7	21	23	0
-7	-21	-23	0
7	21	30	0
-7	-21	-30	0
7	21	32	0
-7	-21	-32	0
7	22	30	0
-7	-22	-30	0
7	22	32	0
-7	-22	-32	0
7	28	30	0
-7	-28	-30	0
8	10	12	0
-8	-10	-12	0
8	10	13	0
-8	-10	-13	0
8	10	16	0
-8	-10	-16	0
8	10	20	0
-8	-10	-20	0
8	10	29	0
-8	-10	-29	0
8	12	13	0
-8	-12	-13	0
8	12	16	0
-8	-12	-16	0
8	12	18	0
-8	-12	-18	0
8	12	21	0
-8	-12	-21	0
8	12	24	0
-8	-12	-24	0
8	12	29	0
-8	-12	-29	0
8	12	31	0
-8	-12	-31	0
8	13	18	0
-8	-13	-18	0
8	13	20	0
-8	-13	-20	0
8	13	21	0
-8	-13	-21	0
8	13	24	0
-8	-13	-24	0
8	13	33	0
-8	-13	-33	0
8	16	20	0
-8	-16	-20	0
8	16	21	0
-8	-16	-21	0
8	16	24	0
-8	-16	-24	0
8	16	31	0
-8	-16	-31	0
8	16	32	0
-8	-16	-32	0
8	18	21	0
-8	-18	-21	0
8	18	29	0
-8	-18	-29	0
8	18	31	0
-8	-18	-31	0
8	18	32	0
-8	-18	-32	0
8	18	33	0
-8	-18	-33	0
8	20	21	0
-8	-20	-21	0
8	20	24	0
-8	-20	-24	0
8	20	31	0
-8	-20	-31	0
8	20	33	0
-8	-20	-33	0
8	21	23	0
-8	-21	-23	0
8	21	24	0
-8	-21	-24	0
8	21	29	0
-8	-21	-29	0
8	21	31	0
-8	-21	-31	0
8	21	32	0
-8	-21	-32	0
8	21	33	0
-8	-21	-33	0
8	23	29	0
-8	-23	-29	0
8	23	33	0
-8	-23	-33	0
8	24	32	0
-8	-24	-32	0
8	31	32	0
-8	-31	-32	0
9	12	21	0
-9	-12	-21	0
9	12	24	0
-9	-12	-24	0
9	12	25	0
-9	-12	-25	0
9	20	21	0
-9	-20	-21	0
9	20	24	0
-9	-20	-24	0
9	20	25	0
-9	-20	-25	0
9	20	30	0
-9	-20	-30	0
9	20	33	0
-9	-20	-33	0
9	20	34	0
-9	-20	-34	0
9	21	23	0
-9	-21	-23	0
9	21	24	0
-9	-21	-24	0
9	21	25	0
-9	-21	-25	0
9	21	30	0
-9	-21	-30	0
9	21	33	0
-9	-21	-33	0
9	21	34	0
-9	-21	-34	0
9	22	24	0
-9	-22	-24	0
9	22	30	0
-9	-22	-30	0
9	22	33	0
-9	-22	-33	0
9	23	25	0
-9	-23	-25	0
9	23	33	0
-9	-23	-33	0
9	23	34	0
-9	-23	-34	0
9	24	25	0
-9	-24	-25	0
9	24	28	0
-9	-24	-28	0
9	24	30	0
-9	-24	-30	0
9	24	34	0
-9	-24	-34	0
9	25	28	0
-9	-25	-28	0
9	25	30	0
-9	-25	-30	0
9	28	30	0
-9	-28	-30	0
9	30	33	0
-9	-30	-33	0
9	30	34	0
-9	-30	-34	0
9	33	34	0
-9	-33	-34	0
10	12	13	0
-10	-12	-13	0
10	12	15	0
-10	-12	-15	0
10	12	16	0
-10	-12	-16	0
10	12	17	0
-10	-12	-17	0
10	12	19	0
-10	-12	-19	0
10	12	29	0
-10	-12	-29	0
10	13	20	0
-10	-13	-20	0
10	13	26	0
-10	-13	-26	0
10	13	34	0
-10	-13	-34	0
10	15	17	0
-10	-15	-17	0
10	15	26	0
-10	-15	-26	0
10	15	27	0
-10	-15	-27	0
10	15	29	0
-10	-15	-29	0
10	16	19	0
-10	-16	-19	0
10	16	20	0
-10	-16	-20	0
10	16	22	0
-10	-16	-22	0
10	17	19	0
-10	-17	-19	0
10	17	22	0
-10	-17	-22	0
10	17	26	0
-10	-17	-26	0
10	17	29	0
-10	-17	-29	0
10	19	20	0
-10	-19	-20	0
10	19	22	0
-10	-19	-22	0
10	19	27	0
-10	-19	-27	0
10	19	34	0
-10	-19	-34	0
10	20	27	0
-10	-20	-27	0
10	20	34	0
-10	-20	-34	0
10	22	26	0
-10	-22	-26	0
10	26	29	0
-10	-26	-29	0
10	26	34	0
-10	-26	-34	0
10	27	29	0
-10	-27	-29	0
10	27	34	0
-10	-27	-34	0
10	29	34	0
-10	-29	-34	0
11	13	18	0
-11	-13	-18	0
11	13	20	0
-11	-13	-20	0
11	13	33	0
-11	-13	-33	0
11	13	34	0
-11	-13	-34	0
11	15	32	0
-11	-15	-32	0
11	15	33	0
-11	-15	-33	0
11	16	19	0
-11	-16	-19	0
11	16	20	0
-11	-16	-20	0
11	16	32	0
-11	-16	-32	0
11	18	32	0
-11	-18	-32	0
11	18	33	0
-11	-18	-33	0
11	18	34	0
-11	-18	-34	0
11	19	20	0
-11	-19	-20	0
11	19	23	0
-11	-19	-23	0
11	19	33	0
-11	-19	-33	0
11	19	34	0
-11	-19	-34	0
11	20	33	0
-11	-20	-33	0
11	20	34	0
-11	-20	-34	0
11	23	33	0
-11	-23	-33	0
11	23	34	0
-11	-23	-34	0
11	33	34	0
-11	-33	-34	0
12	13	14	0
-12	-13	-14	0
12	13	18	0
-12	-13	-18	0
12	13	21	0
-12	-13	-21	0
12	13	24	0
-12	-13	-24	0
12	14	15	0
-12	-14	-15	0
12	14	16	0
-12	-14	-16	0
12	14	17	0
-12	-14	-17	0
12	14	19	0
-12	-14	-19	0
12	14	29	0
-12	-14	-29	0
12	15	17	0
-12	-15	-17	0
12	15	21	0
-12	-15	-21	0
12	15	24	0
-12	-15	-24	0
12	15	25	0
-12	-15	-25	0
12	15	29	0
-12	-15	-29	0
12	16	19	0
-12	-16	-19	0
12	16	21	0
-12	-16	-21	0
12	16	24	0
-12	-16	-24	0
12	16	25	0
-12	-16	-25	0
12	16	31	0
-12	-16	-31	0
12	17	19	0
-12	-17	-19	0
12	17	21	0
-12	-17	-21	0
12	17	25	0
-12	-17	-25	0
12	17	29	0
-12	-17	-29	0
12	18	21	0
-12	-18	-21	0
12	18	25	0
-12	-18	-25	0
12	18	29	0
-12	-18	-29	0
12	18	31	0
-12	-18	-31	0
12	19	21	0
-12	-19	-21	0
12	21	24	0
-12	-21	-24	0
12	21	25	0
-12	-21	-25	0
12	21	29	0
-12	-21	-29	0
12	21	31	0
-12	-21	-31	0
12	24	25	0
-12	-24	-25	0
13	14	20	0
-13	-14	-20	0
13	14	33	0
-13	-14	-33	0
13	18	21	0
-13	-18	-21	0
13	18	33	0
-13	-18	-33	0
13	18	34	0
-13	-18	-34	0
13	20	21	0
-13	-20	-21	0
13	20	24	0
-13	-20	-24	0
13	20	33	0
-13	-20	-33	0
13	20	34	0
-13	-20	-34	0
13	21	24	0
-13	-21	-24	0
13	21	33	0
-13	-21	-33	0
13	21	34	0
-13	-21	-34	0
13	24	26	0
-13	-24	-26	0
13	24	34	0
-13	-24	-34	0
13	26	34	0
-13	-26	-34	0
13	33	34	0
-13	-33	-34	0
14	15	17	0
-14	-15	-17	0
14	15	28	0
-14	-15	-28	0
14	15	29	0
-14	-15	-29	0
14	15	30	0
-14	-15	-30	0
14	15	32	0
-14	-15	-32	0
14	15	33	0
-14	-15	-33	0
14	16	19	0
-14	-16	-19	0
14	16	20	0
-14	-16	-20	0
14	16	22	0
-14	-16	-22	0
14	16	28	0
-14	-16	-28	0
14	16	30	0
-14	-16	-30	0
14	16	32	0
-14	-16	-32	0
14	17	19	0
-14	-17	-19	0
14	17	22	0
-14	-17	-22	0
14	17	29	0
-14	-17	-29	0
14	17	30	0
-14	-17	-30	0
14	17	32	0
-14	-17	-32	0
14	17	33	0
-14	-17	-33	0
14	19	20	0
-14	-19	-20	0
14	19	22	0
-14	-19	-22	0
14	19	28	0
-14	-19	-28	0
14	19	33	0
-14	-19	-33	0
14	20	30	0
-14	-20	-30	0
14	20	33	0
-14	-20	-33	0
14	22	30	0
-14	-22	-30	0
14	22	32	0
-14	-22	-32	0
14	22	33	0
-14	-22	-33	0
14	28	30	0
-14	-28	-30	0
14	30	33	0
-14	-30	-33	0
15	17	21	0
-15	-17	-21	0
15	17	25	0
-15	-17	-25	0
15	17	26	0
-15	-17	-26	0
15	17	29	0
-15	-17	-29	0
15	17	30	0
-15	-17	-30	0
15	17	32	0
-15	-17	-32	0
15	17	33	0
-15	-17	-33	0
15	21	24	0
-15	-21	-24	0
15	21	25	0
-15	-21	-25	0
15	21	29	0
-15	-21	-29	0
15	21	30	0
-15	-21	-30	0
15	21	32	0
-15	-21	-32	0
15	21	33	0
-15	-21	-33	0
15	24	25	0
-15	-24	-25	0
15	24	26	0
-15	-24	-26	0
15	24	28	0
-15	-24	-28	0
15	24	30	0
-15	-24	-30	0
15	24	32	0
-15	-24	-32	0
15	25	26	0
-15	-25	-26	0
15	25	27	0
-15	-25	-27	0
15	25	28	0
-15	-25	-28	0
15	25	30	0
-15	-25	-30	0
15	25	32	0
-15	-25	-32	0
15	26	29	0
-15	-26	-29	0
15	26	30	0
-15	-26	-30	0
15	26	32	0
-15	-26	-32	0
15	27	29	0
-15	-27	-29	0
15	28	30	0
-15	-28	-30	0
15	30	33	0
-15	-30	-33	0
16	19	20	0
-16	-19	-20	0
16	19	21	0
-16	-19	-21	0
16	19	22	0
-16	-19	-22	0
16	19	28	0
-16	-19	-28	0
16	20	21	0
-16	-20	-21	0
16	20	24	0
-16	-20	-24	0
16	20	25	0
-16	-20	-25	0
16	20	30	0
-16	-20	-30	0
16	20	31	0
-16	-20	-31	0
16	21	24	0
-16	-21	-24	0
16	21	25	0
-16	-21	-25	0
16	21	30	0
-16	-21	-30	0
16	21	31	0
-16	-21	-31	0
16	21	32	0
-16	-21	-32	0
16	22	24	0
-16	-22	-24	0
16	22	30	0
-16	-22	-30	0
16	22	31	0
-16	-22	-31	0
16	22	32	0
-16	-22	-32	0
16	24	25	0
-16	-24	-25	0
16	24	28	0
-16	-24	-28	0
16	24	30	0
-16	-24	-30	0
16	24	32	0
-16	-24	-32	0
16	25	28	0
-16	-25	-28	0
16	25	30	0
-16	-25	-30	0
16	25	32	0
-16	-25	-32	0
16	28	30	0
-16	-28	-30	0
16	31	32	0
-16	-31	-32	0
17	19	21	0
-17	-19	-21	0
17	19	22	0
-17	-19	-22	0
17	19	23	0
-17	-19	-23	0
17	19	33	0
-17	-19	-33	0
17	21	23	0
-17	-21	-23	0
17	21	25	0
-17	-21	-25	0
17	21	29	0
-17	-21	-29	0
17	21	30	0
-17	-21	-30	0
17	21	32	0
-17	-21	-32	0
17	21	33	0
-17	-21	-33	0
17	22	26	0
-17	-22	-26	0
17	22	30	0
-17	-22	-30	0
17	22	32	0
-17	-22	-32	0
17	22	33	0
-17	-22	-33	0
17	23	25	0
-17	-23	-25	0
17	23	26	0
-17	-23	-26	0
17	23	29	0
-17	-23	-29	0
17	23	33	0
-17	-23	-33	0
17	25	26	0
-17	-25	-26	0
17	25	30	0
-17	-25	-30	0
17	25	32	0
-17	-25	-32	0
17	26	29	0
-17	-26	-29	0
17	26	30	0
-17	-26	-30	0
17	26	32	0
-17	-26	-32	0
17	30	33	0
-17	-30	-33	0
18	21	25	0
-18	-21	-25	0
18	21	29	0
-18	-21	-29	0
18	21	30	0
-18	-21	-30	0
18	21	31	0
-18	-21	-31	0
18	21	32	0
-18	-21	-32	0
18	21	33	0
-18	-21	-33	0
18	21	34	0
-18	-21	-34	0
18	22	30	0
-18	-22	-30	0
18	22	31	0
-18	-22	-31	0
18	22	32	0
-18	-22	-32	0
18	22	33	0
-18	-22	-33	0
18	25	30	0
-18	-25	-30	0
18	25	32	0
-18	-25	-32	0
18	29	34	0
-18	-29	-34	0
18	30	33	0
-18	-30	-33	0
18	30	34	0
-18	-30	-34	0
18	31	32	0
-18	-31	-32	0
18	31	34	0
-18	-31	-34	0
18	33	34	0
-18	-33	-34	0
19	20	21	0
-19	-20	-21	0
19	20	27	0
-19	-20	-27	0
19	20	33	0
-19	-20	-33	0
19	20	34	0
-19	-20	-34	0
19	21	23	0
-19	-21	-23	0
19	21	33	0
-19	-21	-33	0
19	21	34	0
-19	-21	-34	0
19	22	33	0
-19	-22	-33	0
19	23	33	0
-19	-23	-33	0
19	23	34	0
-19	-23	-34	0
19	27	34	0
-19	-27	-34	0
19	33	34	0
-19	-33	-34	0
20	21	24	0
-20	-21	-24	0
20	21	25	0
-20	-21	-25	0
20	21	30	0
-20	-21	-30	0
20	21	31	0
-20	-21	-31	0
20	21	33	0
-20	-21	-33	0
20	21	34	0
-20	-21	-34	0
20	24	25	0
-20	-24	-25	0
20	24	30	0
-20	-24	-30	0
20	24	34	0
-20	-24	-34	0
20	25	27	0
-20	-25	-27	0
20	25	30	0
-20	-25	-30	0
20	27	34	0
-20	-27	-34	0
20	30	33	0
-20	-30	-33	0
20	30	34	0
-20	-30	-34	0
20	31	34	0
-20	-31	-34	0
20	33	34	0
-20	-33	-34	0
21	23	25	0
-21	-23	-25	0
21	23	29	0
-21	-23	-29	0
21	23	33	0
-21	-23	-33	0
21	23	34	0
-21	-23	-34	0
21	24	25	0
-21	-24	-25	0
21	24	30	0
-21	-24	-30	0
21	24	32	0
-21	-24	-32	0
21	24	34	0
-21	-24	-34	0
21	25	30	0
-21	-25	-30	0
21	25	32	0
-21	-25	-32	0
21	29	34	0
-21	-29	-34	0
21	30	33	0
-21	-30	-33	0
21	30	34	0
-21	-30	-34	0
21	31	32	0
-21	-31	-32	0
21	31	34	0
-21	-31	-34	0
21	33	34	0
-21	-33	-34	0
22	24	26	0
-22	-24	-26	0
22	24	30	0
-22	-24	-30	0
22	24	32	0
-22	-24	-32	0
22	26	30	0
-22	-26	-30	0
22	26	31	0
-22	-26	-31	0
22	26	32	0
-22	-26	-32	0
22	30	33	0
-22	-30	-33	0
22	31	32	0
-22	-31	-32	0
23	25	26	0
-23	-25	-26	0
23	26	29	0
-23	-26	-29	0
23	26	34	0
-23	-26	-34	0
23	29	34	0
-23	-29	-34	0
23	33	34	0
-23	-33	-34	0
24	25	26	0
-24	-25	-26	0
24	25	28	0
-24	-25	-28	0
24	25	30	0
-24	-25	-30	0
24	25	32	0
-24	-25	-32	0
24	26	30	0
-24	-26	-30	0
24	26	32	0
-24	-26	-32	0
24	26	34	0
-24	-26	-34	0
24	28	30	0
-24	-28	-30	0
24	30	34	0
-24	-30	-34	0
25	26	30	0
-25	-26	-30	0
25	26	32	0
-25	-26	-32	0
25	28	30	0
-25	-28	-30	0
26	29	34	0
-26	-29	-34	0
26	30	34	0
-26	-30	-34	0
26	31	32	0
-26	-31	-32	0
26	31	34	0
-26	-31	-34	0
27	29	34	0
-27	-29	-34	0
30	33	34	0
-30	-33	-34	0